NAME          
ROWS
 N  OBJ
 L  c1
 L  c2
COLUMNS
    MARKER    'MARKER'                 'INTORG'
    x[1]      c1        125
    x[1]      c2        406
    x[1]      OBJ       -852
    x[2]      c1        344
    x[2]      c2        689
    x[2]      OBJ       -45
    x[3]      c1        443
    x[3]      c2        732
    x[3]      OBJ       -591
    x[4]      c1        156
    x[4]      c2        435
    x[4]      OBJ       -652
    x[5]      c1        401
    x[5]      c2        418
    x[5]      OBJ       -113
    x[6]      c1        538
    x[6]      c2        674
    x[6]      OBJ       -839
    x[7]      c1        64
    x[7]      c2        196
    x[7]      OBJ       -376
    x[8]      c1        754
    x[8]      c2        151
    x[8]      OBJ       -394
    x[9]      c1        286
    x[9]      c2        669
    x[9]      OBJ       -469
    x[10]     c1        633
    x[10]     c2        95
    x[10]     OBJ       -748
    x[11]     c1        404
    x[11]     c2        216
    x[11]     OBJ       -957
    x[12]     c1        389
    x[12]     c2        735
    x[12]     OBJ       -572
    x[13]     c1        730
    x[13]     c2        543
    x[13]     OBJ       -129
    x[14]     c1        597
    x[14]     c2        598
    x[14]     OBJ       -513
    x[15]     c1        759
    x[15]     c2        44
    x[15]     OBJ       -928
    x[16]     c1        889
    x[16]     c2        270
    x[16]     OBJ       -351
    x[17]     c1        972
    x[17]     c2        312
    x[17]     OBJ       -881
    x[18]     c1        55
    x[18]     c2        454
    x[18]     OBJ       -856
    x[19]     c1        669
    x[19]     c2        220
    x[19]     OBJ       -633
    x[20]     c1        436
    x[20]     c2        879
    x[20]     OBJ       -784
    x[21]     c1        344
    x[21]     c2        356
    x[21]     OBJ       -752
    x[22]     c1        267
    x[22]     c2        972
    x[22]     OBJ       -373
    x[23]     c1        404
    x[23]     c2        585
    x[23]     OBJ       -3
    x[24]     c1        142
    x[24]     c2        547
    x[24]     OBJ       -623
    x[25]     c1        909
    x[25]     c2        822
    x[25]     OBJ       -177
RHS
    rhs       c1        5855
    rhs       c2        6009
RANGES
BOUNDS
 LO bounds    x[1]      0
 PL bounds    x[1]
 LO bounds    x[2]      0
 PL bounds    x[2]
 LO bounds    x[3]      0
 PL bounds    x[3]
 LO bounds    x[4]      0
 PL bounds    x[4]
 LO bounds    x[5]      0
 PL bounds    x[5]
 LO bounds    x[6]      0
 PL bounds    x[6]
 LO bounds    x[7]      0
 PL bounds    x[7]
 LO bounds    x[8]      0
 PL bounds    x[8]
 LO bounds    x[9]      0
 PL bounds    x[9]
 LO bounds    x[10]     0
 PL bounds    x[10]
 LO bounds    x[11]     0
 PL bounds    x[11]
 LO bounds    x[12]     0
 PL bounds    x[12]
 LO bounds    x[13]     0
 PL bounds    x[13]
 LO bounds    x[14]     0
 PL bounds    x[14]
 LO bounds    x[15]     0
 PL bounds    x[15]
 LO bounds    x[16]     0
 PL bounds    x[16]
 LO bounds    x[17]     0
 PL bounds    x[17]
 LO bounds    x[18]     0
 PL bounds    x[18]
 LO bounds    x[19]     0
 PL bounds    x[19]
 LO bounds    x[20]     0
 PL bounds    x[20]
 LO bounds    x[21]     0
 PL bounds    x[21]
 LO bounds    x[22]     0
 PL bounds    x[22]
 LO bounds    x[23]     0
 PL bounds    x[23]
 LO bounds    x[24]     0
 PL bounds    x[24]
 LO bounds    x[25]     0
 PL bounds    x[25]
ENDATA
